103 6
27 28 30 28 32 28
1 0 0 0 0 0 0 3 2 3 4
4 4 10 4 7 3 4 4 5 6 7 8
3 7 9 2 7 1 3 4 103 6 7 8
4 4 7 6 7 1 7 4 5 6 7 8
7 2 3 9 8 7 3 4 9 10 11 12
7 7 10 8 7 8 5 3 9 11 12
5 2 1 2 8 10 8 4 9 10 11 12
8 10 10 1 2 8 3 4 9 10 11 12
7 7 4 10 2 4 6 2 15 16
8 3 1 1 6 9 6 3 13 14 16
4 2 6 1 2 9 8 3 14 15 16
7 8 8 10 6 10 5 3 13 14 16
4 2 6 8 8 7 4 3 17 18 20
10 4 7 7 9 6 6 4 17 18 19 20
6 8 6 10 9 10 9 3 17 18 19
10 5 5 7 9 4 3 3 17 18 20
6 6 8 5 1 5 2 1 22
10 8 2 3 1 9 6 2 22 24
1 6 4 1 2 10 4 3 22 23 24
9 5 1 5 1 2 5 3 21 22 24
7 3 4 2 7 2 3 2 26 28
1 9 10 10 8 3 8 3 25 26 28
8 3 5 9 8 10 3 4 25 26 27 28
10 10 2 8 4 1 9 4 25 26 27 28
1 10 7 4 6 1 3 4 29 30 31 32
3 5 1 8 6 8 3 3 29 31 32
9 1 6 1 7 3 8 4 29 30 31 32
9 10 2 1 1 8 8 3 29 30 32
5 1 7 8 1 9 8 3 34 35 36
1 1 6 9 9 2 7 3 33 34 36
2 5 1 4 9 5 4 3 33 34 36
6 1 2 7 3 7 6 3 34 35 36
6 2 4 7 3 1 2 4 37 38 39 40
5 3 6 7 8 4 4 3 37 38 40
8 3 5 10 9 5 10 4 37 38 39 40
10 10 8 10 1 10 4 3 38 39 40
7 6 5 4 10 10 9 4 41 42 43 44
5 7 6 5 1 5 9 4 41 42 43 44
2 7 9 4 5 3 5 3 41 42 43
5 1 2 1 1 9 10 4 41 42 43 44
10 7 10 2 10 10 7 4 45 46 47 48
9 3 2 7 4 10 10 4 45 46 47 48
10 8 3 2 3 2 10 4 45 46 47 48
4 9 6 3 9 5 1 4 45 46 47 48
9 3 9 6 2 4 2 2 51 52
8 10 1 7 3 4 4 3 50 51 52
7 2 10 8 6 5 3 3 49 51 52
6 8 3 6 3 9 4 3 49 51 52
10 5 1 9 6 9 7 3 53 54 56
9 1 3 8 4 7 7 3 54 55 56
6 6 10 1 9 8 3 4 53 54 55 56
9 5 5 7 9 2 6 3 53 54 56
3 9 2 6 7 8 7 4 57 58 59 60
9 3 8 2 10 2 9 4 57 58 59 60
1 6 7 10 2 7 4 4 57 58 59 60
9 3 1 2 3 9 10 4 57 58 59 60
7 9 9 7 7 6 10 4 61 62 63 64
4 3 9 2 9 7 8 3 61 62 63
3 2 7 6 6 9 1 4 61 62 63 64
3 3 3 6 7 2 2 3 62 63 64
8 6 1 9 4 3 9 4 65 66 67 68
6 6 7 8 1 3 3 4 65 66 67 68
8 3 9 4 9 10 9 4 65 66 67 68
10 4 1 8 3 8 5 4 65 66 67 68
8 8 6 6 4 5 6 3 69 70 72
2 10 9 9 3 10 1 4 69 70 71 72
4 10 3 5 10 7 2 4 69 70 71 72
7 9 10 7 5 8 10 2 69 70
10 9 2 6 5 9 4 4 73 74 75 76
6 6 8 1 4 8 4 4 73 74 75 76
2 3 9 9 1 6 6 4 73 74 75 76
9 4 9 7 5 3 9 4 73 74 75 76
6 1 7 6 6 6 7 2 77 79
3 3 2 9 1 10 9 3 77 78 79
10 10 6 5 8 4 3 4 77 78 79 80
4 1 4 9 8 8 2 3 77 78 79
1 8 4 2 8 10 7 3 81 82 83
8 7 8 5 5 3 4 3 81 82 83
4 3 3 6 2 4 1 3 81 82 84
6 1 9 10 2 7 4 4 81 82 83 84
7 5 5 6 1 7 4 4 85 86 87 88
5 7 2 9 8 8 10 2 85 87
4 8 5 9 10 1 5 2 85 86
9 4 6 2 6 1 4 4 85 86 87 88
1 7 7 10 8 7 3 3 90 91 92
3 3 3 5 3 8 1 2 89 90
4 4 4 9 10 4 6 3 90 91 92
8 6 10 3 3 3 7 3 89 90 92
3 8 1 7 2 1 7 2 94 96
6 1 2 7 3 7 8 4 93 94 95 96
10 6 7 8 9 6 7 4 93 94 95 96
8 6 7 7 3 9 3 2 93 94
1 3 4 6 4 9 4 2 97 98
5 3 5 2 8 10 7 2 97 100
7 8 6 3 6 3 7 3 97 99 100
3 10 6 1 9 9 4 2 97 99
10 5 2 9 8 7 5 1 101
9 4 4 7 6 8 3 1 102
8 3 7 10 2 10 5 1 102
1 4 6 7 8 5 2 1 101
2 7 8 1 10 10 4 1 103
8 7 8 9 3 10 3 1 103
0 0 0 0 0 0 0 0
